l01.solver.3.cplex.todo/04.cplex.ironRods/ironrods.sol
<?xml version = "1.0" encoding="UTF-8" standalone="yes"?>
<CPLEXSolution version="1.2">
 <header
   problemName=""
   solutionName="incumbent"
   solutionIndex="-1"
   objectiveValue="90265"
   solutionTypeValue="3"
   solutionTypeString="primal"
   solutionStatusValue="101"
   solutionStatusString="integer optimal solution"
   solutionMethodString="mip"
   primalFeasible="1"
   dualFeasible="1"
   MIPNodes="0"
   MIPIterations="10"
   writeLevel="1"/>
 <quality
   epInt="1e-05"
   epRHS="1e-06"
   maxIntInfeas="0"
   maxPrimalInfeas="0"
   maxX="5000"
   maxSlack="9000"/>
 <linearConstraints>
  <constraint index="0" slack="0"/>
  <constraint index="1" slack="0"/>
  <constraint index="2" slack="0"/>
  <constraint index="3" slack="0"/>
  <constraint index="4" slack="0"/>
  <constraint index="5" slack="0"/>
  <constraint index="6" slack="7000"/>
  <constraint index="7" slack="0"/>
  <constraint index="8" slack="6000"/>
  <constraint index="9" slack="9000"/>
  <constraint index="10" slack="5000"/>
  <constraint index="11" slack="0"/>
  <constraint index="12" slack="6000"/>
  <constraint index="13" slack="0"/>
  <constraint index="14" slack="0"/>
  <constraint index="15" slack="0"/>
 </linearConstraints>
 <variables>
  <variable name="x_A_1" index="0" value="3000"/>
  <variable name="x_A_2" index="1" value="0"/>
  <variable name="x_A_3" index="2" value="4000"/>
  <variable name="x_B_1" index="3" value="1000"/>
  <variable name="x_B_2" index="4" value="5000"/>
  <variable name="x_B_3" index="5" value="0"/>
  <variable name="x_C_1" index="6" value="4000"/>
  <variable name="x_C_2" index="7" value="0"/>
  <variable name="x_C_3" index="8" value="0"/>
  <variable name="y_A_1" index="9" value="1"/>
  <variable name="y_A_2" index="10" value="0"/>
  <variable name="y_A_3" index="11" value="1"/>
  <variable name="y_B_1" index="12" value="1"/>
  <variable name="y_B_2" index="13" value="1"/>
  <variable name="y_B_3" index="14" value="0"/>
  <variable name="y_C_1" index="15" value="1"/>
  <variable name="y_C_2" index="16" value="0"/>
  <variable name="y_C_3" index="17" value="0"/>
  <variable name="z" index="18" value="1"/>
 </variables>
</CPLEXSolution>
